N=30;
start=[|
24, 0, 0, 0, 0, 30, 29, 28, 4, 7, 0, 0, 14, 26, 0, 0, 25, 2, 0, 13, 5, 21, 27, 16, 11, 20, 0, 6, 0, 0|
28, 7, 0, 24, 0, 10, 0, 0, 0, 0, 0, 18, 25, 3, 19, 12, 8, 0, 1, 5, 0, 20, 0, 4, 2, 14, 0, 0, 0, 23|
27, 14, 15, 3, 0, 17, 0, 0, 2, 5, 21, 0, 0, 23, 8, 0, 0, 0, 13, 28, 9, 10, 26, 0, 7, 0, 0, 29, 0, 1|
18, 0, 17, 0, 0, 25, 3, 0, 16, 30, 10, 15, 0, 0, 14, 0, 0, 23, 0, 12, 1, 29, 0, 0, 0, 2, 24, 26, 0, 22|
20, 0, 30, 23, 0, 9, 8, 26, 0, 0, 7, 0, 0, 0, 0, 1, 18, 22, 25, 2, 15, 0, 10, 19, 27, 0, 0, 0, 14, 0|
0, 5, 0, 0, 0, 21, 0, 0, 14, 9, 27, 17, 0, 30, 13, 0, 0, 12, 28, 0, 0, 6, 29, 7, 16, 0, 4, 19, 23, 20|
1, 0, 24, 0, 6, 27, 0, 21, 22, 0, 0, 0, 12, 18, 17, 0, 15, 0, 2, 0, 0, 13, 0, 0, 19, 7, 11, 0, 28, 5|
6, 0, 10, 0, 23, 0, 27, 13, 0, 0, 2, 25, 0, 4, 12, 3, 0, 5, 0, 9, 0, 11, 21, 18, 22, 26, 0, 0, 29, 0|
0, 1, 21, 0, 17, 0, 24, 10, 9, 27, 8, 19, 4, 12, 0, 18, 0, 0, 0, 0, 0, 22, 0, 28, 23, 25, 7, 0, 11, 0|
0, 0, 0, 0, 0, 15, 0, 22, 0, 8, 4, 13, 24, 0, 16, 20, 0, 14, 0, 23, 28, 1, 25, 0, 0, 17, 5, 30, 0, 26|
0, 15, 13, 25, 27, 0, 0, 0, 29, 6, 11, 24, 7, 0, 0, 30, 0, 0, 19, 17, 23, 16, 12, 0, 0, 9, 0, 1, 22, 0|
13, 0, 0, 0, 10, 22, 18, 5, 15, 4, 16, 2, 27, 21, 0, 11, 0, 26, 0, 0, 0, 0, 0, 17, 12, 6, 20, 0, 0, 19|
0, 19, 6, 2, 0, 0, 17, 11, 18, 10, 0, 0, 28, 29, 0, 8, 0, 30, 0, 20, 0, 25, 0, 24, 0, 4, 15, 5, 7, 0|
0, 11, 3, 26, 0, 16, 0, 0, 21, 12, 19, 6, 10, 0, 0, 22, 7, 0, 0, 14, 29, 0, 2, 0, 17, 0, 0, 18, 0, 28|
3, 0, 0, 28, 12, 0, 15, 24, 0, 11, 26, 0, 29, 19, 2, 0, 0, 0, 5, 10, 0, 0, 0, 20, 6, 18, 16, 0, 0, 30|
0, 18, 8, 7, 0, 0, 28, 6, 0, 0, 12, 20, 22, 0, 0, 4, 0, 21, 14, 0, 2, 0, 0, 5, 30, 10, 25, 0, 1, 0|
29, 0, 7, 22, 0, 0, 25, 20, 5, 18, 17, 14, 26, 24, 23, 0, 21, 0, 4, 1, 0, 19, 11, 0, 0, 0, 0, 0, 9, 0|
19, 4, 0, 0, 22, 0, 0, 0, 30, 29, 28, 0, 0, 0, 20, 6, 1, 11, 17, 0, 14, 0, 24, 25, 0, 0, 18, 21, 5, 0|
22, 0, 0, 17, 18, 20, 19, 0, 13, 26, 24, 0, 30, 0, 11, 29, 23, 8, 0, 15, 7, 0, 0, 0, 0, 0, 9, 14, 12, 0|
0, 6, 28, 20, 3, 1, 23, 7, 10, 0, 0, 5, 0, 0, 0, 24, 16, 0, 8, 18, 0, 0, 22, 0, 0, 0, 12, 15, 30, 0|
4, 23, 14, 19, 1, 0, 2, 0, 0, 0, 3, 28, 0, 16, 0, 15, 12, 0, 18, 0, 22, 26, 6, 30, 0, 29, 0, 0, 0, 9|
15, 3, 0, 13, 14, 0, 12, 0, 0, 16, 0, 26, 0, 0, 18, 0, 9, 24, 0, 0, 30, 0, 0, 27, 29, 0, 28, 4, 25, 17|
0, 0, 1, 14, 20, 26, 30, 0, 27, 0, 0, 0, 5, 11, 0, 0, 22, 0, 0, 0, 0, 4, 3, 29, 21, 16, 17, 23, 0, 8|
5, 13, 9, 0, 8, 23, 1, 12, 0, 0, 0, 29, 16, 7, 30, 0, 6, 10, 0, 0, 19, 0, 0, 0, 0, 11, 0, 27, 15, 25|
26, 20, 0, 18, 9, 28, 16, 0, 0, 0, 0, 10, 0, 5, 21, 7, 0, 25, 30, 0, 3, 8, 0, 1, 13, 0, 0, 0, 0, 4|
0, 0, 0, 15, 0, 0, 26, 1, 0, 25, 0, 0, 0, 14, 28, 13, 29, 6, 23, 8, 0, 2, 9, 0, 18, 21, 30, 0, 10, 24|
0, 0, 19, 12, 15, 0, 0, 8, 7, 0, 0, 11, 13, 6, 0, 0, 30, 0, 21, 16, 4, 0, 0, 2, 20, 0, 26, 25, 18, 0|
0, 12, 0, 27, 21, 18, 0, 9, 8, 2, 0, 0, 11, 0, 0, 0, 14, 13, 0, 6, 24, 0, 30, 0, 0, 19, 0, 22, 17, 3|
30, 16, 20, 0, 24, 0, 0, 0, 0, 0, 14, 4, 17, 22, 27, 25, 26, 19, 9, 0, 8, 18, 5, 0, 0, 0, 0, 0, 6, 12|
23, 28, 0, 0, 0, 6, 0, 16, 20, 1, 0, 0, 0, 0, 5, 0, 2, 29, 27, 0, 10, 15, 18, 8, 24, 30, 13, 11, 0, 0|];
